(declare-fun bvlambda_11_ () (_ BitVec 1))
(declare-fun bvlambda_13_ () (_ BitVec 5))
(declare-fun bvlambda_23_ () (_ BitVec 2))
(declare-fun bvlambda_24_ () (_ BitVec 4))
(declare-fun a69 () (Array (_ BitVec 1) (_ BitVec 5)))
(assert
(let (($e1 (_ bv0 1)))
(let (($e7 (_ bv2046 11)))
(let (($e17 (_ bv0 4)))
(let (($e125 (store a69 $e1        bvlambda_13_)))
(let (($e142 (concat bvlambda_13_ bvlambda_23_)))
(let (($e143 (concat $e142 bvlambda_24_)))
(let (($e144 (bvadd        $e7         $e143 )))
(let (($e268 (   extract      $e144)))
(let (($e269 (store a69 $e268 bvlambda_13_)))
(let (($e270 (select $e269 true       )))
(let (($e365 (select $e125 bvlambda_11_)))
(let (($e692 (concat $e17 $e268)))
(let (($e695         $e365                ))
(let (($e709      (= $e270 $e365)         ))
                    (bvnot $e709)
                                                                                                                                                                                                                                                                                                                                                                                                                                                                                                                                                                              )             )  )                                                                                                                                                                                                                                                                                                                                      )                                                                                              )))                                                                                                                           )))                )                                                                                 )         )     ))
